<number of tasks>
20

<cycle time>
1000

<order strength>
0,189


<task times>
1 77
2 174
3 226
4 141
5 122
6 252
7 49
8 22
9 154
10 191
11 226
12 77
13 132
14 145
15 73
16 54
17 236
18 155
19 164
20 182

<precedence relations>
1,6
2,7
2,8
3,9
5,10
6,11
7,12
9,13
11,14
12,15
13,16
14,17
15,18
16,19
16,20

<end>
